14073
101001011001011001001000110000
20 7 13 2 20 5 2 24 14 0 24 13 20 20 0 8 14 17 5 11 14 11 11 7 5 8 11 5 5 5 25 25 2 25 20 20 24 24 8 17 17 2 11 14 24 14 14 13 24 8 5 11 14 5 20 20 14 25 11 14 0 11 20 11 11 11 5 0 25 25 20 13 11 7 24 20 24 20 7 24 13 7 20 17 5 17 0 0 20 5 2 5 2 11 2 24 14 0 5 20 13 17 14 25 14 11 17 11 14 8 14 17 2 11 11 14 24 24 24 24 5 8 25 13 20 11 5 24 0 14 0 11 24 25 17 14 7 25 20 17 0 20 20 14 8 7 25 5 2 5 